NAME : Proba_1
DIMENSION : 25
TYPE : TSP
PATH : (11)(17)+(15)+(6)(4)+(2)+(7)(10)++(19)+(3)+(14)+(22)(25)++(16)++(20)+(1)+(5)+(21)+(23)+(18)+(9)+(13)+(24)+(12)+(8)+
1 10 560
2 17 101
3 56 364
4 107 95
5 131 268
6 154 91
7 228 337
8 235 299
9 239 95
10 259 372
11 270 517
12 298 153
13 319 265
14 333 105
15 413 543
16 417 82
17 426 460
18 452 456
19 478 371
20 488 497
21 512 57
22 516 332
23 533 354
24 556 554
25 589 374
EOF
